data;
set K:= K1 K2 K3 K4 K5 K6 K7 K8 K9 K10 K11 K12 K13 K14 K15 ;

set F:= F1 F2 F3 ;

set Q:= Q1 Q2 ;

param T:= 45;
param V: 
	K1  K2  K3  K4  K5  K6  K7  K8  K9  K10 K11 K12 K13 K14 K15 :=
Q1	1   1   1   1   1   1   1   1   1   0   0   0   0   0   0   
Q2	0   0   0   0   0   0   0   0   0   1   1   1   1   1   1   
; # if resorce k is of type q

param TF:= 
K1 6
K2 6
K3 6
K4 6
K5 6
K6 6
K7 6
K8 6
K9 6
K10 12
K11 12
K12 12
K13 12
K14 12
K15 12
; # number of continuous time slots resource can fly

param TR:= 
K1 2
K2 2
K3 2
K4 2
K5 2
K6 2
K7 2
K8 2
K9 2
K10 4
K11 4
K12 4
K13 4
K14 4
K15 4
; #  number of continuous time slots resource k needs to rest between flights

param P:= 
K1 36
K2 36
K3 36
K4 36
K5 36
K6 36
K7 36
K8 36
K9 36
K10 36
K11 36
K12 36
K13 36
K14 36
K15 36
; #  number of continuous time slots a pilot can be present including rest times for resource k 

param N:= 
K1 4
K2 4
K3 4
K4 4
K5 4
K6 4
K7 4
K8 4
K9 4
K10 2
K11 2
K12 2
K13 2
K14 2
K15 1
; # max number of flights resource k can fly in the total time period

param A: 
	K1  K2  K3  K4  K5  K6  K7  K8  K9  K10 K11 K12 K13 K14 K15 :=
1	1   1   1   1   1   1   1   1   1   1   1   1   1   1   0   
2	1   1   1   1   1   1   1   1   1   1   1   1   1   1   0   
3	1   1   1   1   1   1   1   1   1   1   1   1   1   1   0   
4	1   1   1   1   1   1   1   1   1   1   1   1   1   1   0   
5	1   1   1   1   1   1   1   1   1   1   1   1   1   1   0   
6	1   1   1   1   1   1   1   1   1   1   1   1   1   1   0   
7	1   1   1   1   1   1   1   1   1   1   1   1   1   1   0   
8	1   1   1   1   1   1   1   1   1   1   1   1   1   1   0   
9	1   1   1   1   1   1   1   1   1   1   1   1   1   1   0   
10	1   1   1   1   1   1   1   1   1   1   1   1   1   1   0   
11	1   1   1   1   1   1   1   1   1   1   1   1   1   1   0   
12	1   1   1   1   1   1   1   1   1   1   1   1   1   1   0   
13	1   1   1   1   1   1   1   1   1   1   1   1   1   1   0   
14	1   1   1   1   1   1   1   1   1   1   1   1   1   1   0   
15	1   1   1   1   1   1   1   1   1   1   1   1   1   1   0   
16	1   1   1   1   1   1   1   1   1   1   1   1   1   1   1   
17	1   1   1   1   1   1   1   1   1   1   1   1   1   1   1   
18	1   1   1   1   1   1   1   1   1   1   1   1   1   1   1   
19	1   1   1   1   1   1   1   1   1   1   1   1   1   1   1   
20	1   1   1   1   1   1   1   1   1   1   1   1   1   1   1   
21	1   1   1   1   1   1   1   1   1   1   1   1   1   1   1   
22	1   1   1   1   1   1   1   1   1   1   1   1   1   1   1   
23	1   1   1   1   1   1   1   1   1   1   1   1   1   1   1   
24	1   1   1   1   1   1   1   1   1   1   1   1   1   1   1   
25	1   1   1   1   1   1   1   1   1   1   1   1   1   1   1   
26	1   1   1   1   1   1   1   1   1   1   1   1   1   1   1   
27	1   1   1   1   1   1   1   1   1   1   1   1   1   1   1   
28	1   1   1   1   1   1   1   1   1   1   1   1   1   1   1   
29	1   1   1   1   1   1   1   1   1   1   1   1   1   1   1   
30	1   1   1   1   1   1   1   1   1   1   1   1   1   1   1   
31	1   1   1   1   1   1   1   1   1   1   1   1   1   1   1   
32	1   1   1   1   1   1   1   1   1   1   1   1   1   1   1   
33	1   1   1   1   1   1   1   1   1   1   1   1   1   1   1   
34	1   1   1   1   1   1   1   1   1   1   1   1   1   1   1   
35	1   1   1   1   1   1   1   1   1   1   1   1   1   1   1   
36	1   1   1   1   1   1   1   1   1   1   1   1   1   1   1   
37	1   1   1   1   1   1   1   1   1   1   1   1   1   1   1   
38	1   1   1   1   1   1   1   1   1   1   1   1   1   1   1   
39	1   1   1   1   1   1   1   1   1   1   1   1   1   1   1   
40	1   1   1   1   1   1   1   1   1   1   1   1   1   1   1   
41	1   1   1   1   1   1   1   1   1   1   1   1   1   1   1   
42	1   1   1   1   1   1   1   1   1   1   1   1   1   1   1   
43	1   1   1   1   1   1   1   1   1   1   1   1   1   1   1   
44	1   1   1   1   1   1   1   1   1   1   1   1   1   1   1   
45	1   1   1   1   1   1   1   1   1   1   1   1   1   1   1   
; # availability of resorce k in time slot t

param B: 
	F1  F2  F3  :=
Q1	0   0   0   
Q2	0   0   0   
; # if front f requires resources of type q

param U: 
	F1  F2  F3  :=
K1	0   0   0   
K2	0   0   0   
K3	0   0   0   
K4	0   0   0   
K5	0   0   0   
K6	0   0   0   
K7	0   0   0   
K8	0   0   0   
K9	0   0   0   
K10	2   2   2   
K11	2   2   2   
K12	0   0   0   
K13	0   0   0   
K14	1   1   1   
K15	2   2   2   
; # transit time of resource

param C:= 
K1 900
K2 900
K3 900
K4 900
K5 900
K6 1500
K7 1500
K8 4500
K9 4500
K10 5500
K11 5500
K12 5500
K13 5500
K14 5500
K15 5500
; #  water capacity of resource k

param S:= 
F1 9
F2 7
F3 9
; # max number of resources that can fly at front f in the same time slot

param D:= 

[*,*,F1 ]:  K1    K2    K3    K4    K5    K6    K7    K8    K9    K10   K11   K12   K13   K14   K15   :=
1           1.60  1.60  1.60  1.60  1.60  1.60  1.60  1.28  1.28  0.96  0.96  0.96  0.96  0.96  0.96  
2           1.60  1.60  1.60  1.60  1.60  1.60  1.60  1.28  1.28  0.96  0.96  0.96  0.96  0.96  0.96  
3           1.60  1.60  1.60  1.60  1.60  1.60  1.60  1.28  1.28  0.96  0.96  0.96  0.96  0.96  0.96  
4           1.60  1.60  1.60  1.60  1.60  1.60  1.60  1.28  1.28  0.96  0.96  0.96  0.96  0.96  0.96  
5           1.60  1.60  1.60  1.60  1.60  1.60  1.60  1.28  1.28  0.96  0.96  0.96  0.96  0.96  0.96  
6           1.60  1.60  1.60  1.60  1.60  1.60  1.60  1.28  1.28  0.96  0.96  0.96  0.96  0.96  0.96  
7           1.60  1.60  1.60  1.60  1.60  1.60  1.60  1.28  1.28  0.96  0.96  0.96  0.96  0.96  0.96  
8           1.60  1.60  1.60  1.60  1.60  1.60  1.60  1.28  1.28  0.96  0.96  0.96  0.96  0.96  0.96  
9           1.60  1.60  1.60  1.60  1.60  1.60  1.60  1.28  1.28  0.96  0.96  0.96  0.96  0.96  0.96  
10          1.60  1.60  1.60  1.60  1.60  1.60  1.60  1.28  1.28  0.96  0.96  0.96  0.96  0.96  0.96  
11          1.60  1.60  1.60  1.60  1.60  1.60  1.60  1.28  1.28  0.96  0.96  0.96  0.96  0.96  0.96  
12          1.60  1.60  1.60  1.60  1.60  1.60  1.60  1.28  1.28  0.96  0.96  0.96  0.96  0.96  0.96  
13          1.60  1.60  1.60  1.60  1.60  1.60  1.60  1.28  1.28  0.96  0.96  0.96  0.96  0.96  0.96  
14          1.60  1.60  1.60  1.60  1.60  1.60  1.60  1.28  1.28  0.96  0.96  0.96  0.96  0.96  0.96  
15          1.60  1.60  1.60  1.60  1.60  1.60  1.60  1.28  1.28  0.96  0.96  0.96  0.96  0.96  0.96  
16          1.60  1.60  1.60  1.60  1.60  1.60  1.60  1.28  1.28  0.96  0.96  0.96  0.96  0.96  0.96  
17          1.60  1.60  1.60  1.60  1.60  1.60  1.60  1.28  1.28  0.96  0.96  0.96  0.96  0.96  0.96  
18          1.60  1.60  1.60  1.60  1.60  1.60  1.60  1.28  1.28  0.96  0.96  0.96  0.96  0.96  0.96  
19          1.60  1.60  1.60  1.60  1.60  1.60  1.60  1.28  1.28  0.96  0.96  0.96  0.96  0.96  0.96  
20          1.60  1.60  1.60  1.60  1.60  1.60  1.60  1.28  1.28  0.96  0.96  0.96  0.96  0.96  0.96  
21          1.60  1.60  1.60  1.60  1.60  1.60  1.60  1.28  1.28  0.96  0.96  0.96  0.96  0.96  0.96  
22          1.60  1.60  1.60  1.60  1.60  1.60  1.60  1.28  1.28  0.96  0.96  0.96  0.96  0.96  0.96  
23          1.60  1.60  1.60  1.60  1.60  1.60  1.60  1.28  1.28  0.96  0.96  0.96  0.96  0.96  0.96  
24          1.60  1.60  1.60  1.60  1.60  1.60  1.60  1.28  1.28  0.96  0.96  0.96  0.96  0.96  0.96  
25          1.52  1.52  1.52  1.52  1.52  1.52  1.52  1.21  1.21  0.91  0.91  0.91  0.91  0.91  0.91  
26          1.52  1.52  1.52  1.52  1.52  1.52  1.52  1.21  1.21  0.91  0.91  0.91  0.91  0.91  0.91  
27          1.52  1.52  1.52  1.52  1.52  1.52  1.52  1.21  1.21  0.91  0.91  0.91  0.91  0.91  0.91  
28          1.52  1.52  1.52  1.52  1.52  1.52  1.52  1.21  1.21  0.91  0.91  0.91  0.91  0.91  0.91  
29          1.52  1.52  1.52  1.52  1.52  1.52  1.52  1.21  1.21  0.91  0.91  0.91  0.91  0.91  0.91  
30          1.52  1.52  1.52  1.52  1.52  1.52  1.52  1.21  1.21  0.91  0.91  0.91  0.91  0.91  0.91  
31          1.52  1.52  1.52  1.52  1.52  1.52  1.52  1.21  1.21  0.91  0.91  0.91  0.91  0.91  0.91  
32          1.52  1.52  1.52  1.52  1.52  1.52  1.52  1.21  1.21  0.91  0.91  0.91  0.91  0.91  0.91  
33          1.52  1.52  1.52  1.52  1.52  1.52  1.52  1.21  1.21  0.91  0.91  0.91  0.91  0.91  0.91  
34          1.60  1.60  1.60  1.60  1.60  1.60  1.60  1.28  1.28  0.96  0.96  0.96  0.96  0.96  0.96  
35          1.60  1.60  1.60  1.60  1.60  1.60  1.60  1.28  1.28  0.96  0.96  0.96  0.96  0.96  0.96  
36          1.60  1.60  1.60  1.60  1.60  1.60  1.60  1.28  1.28  0.96  0.96  0.96  0.96  0.96  0.96  
37          1.60  1.60  1.60  1.60  1.60  1.60  1.60  1.28  1.28  0.96  0.96  0.96  0.96  0.96  0.96  
38          1.60  1.60  1.60  1.60  1.60  1.60  1.60  1.28  1.28  0.96  0.96  0.96  0.96  0.96  0.96  
39          1.60  1.60  1.60  1.60  1.60  1.60  1.60  1.28  1.28  0.96  0.96  0.96  0.96  0.96  0.96  
40          1.60  1.60  1.60  1.60  1.60  1.60  1.60  1.28  1.28  0.96  0.96  0.96  0.96  0.96  0.96  
41          1.60  1.60  1.60  1.60  1.60  1.60  1.60  1.28  1.28  0.96  0.96  0.96  0.96  0.96  0.96  
42          1.60  1.60  1.60  1.60  1.60  1.60  1.60  1.28  1.28  0.96  0.96  0.96  0.96  0.96  0.96  
43          1.60  1.60  1.60  1.60  1.60  1.60  1.60  1.28  1.28  0.96  0.96  0.96  0.96  0.96  0.96  
44          1.60  1.60  1.60  1.60  1.60  1.60  1.60  1.28  1.28  0.96  0.96  0.96  0.96  0.96  0.96  
45          1.60  1.60  1.60  1.60  1.60  1.60  1.60  1.28  1.28  0.96  0.96  0.96  0.96  0.96  0.96  

[*,*,F2 ]:  K1    K2    K3    K4    K5    K6    K7    K8    K9    K10   K11   K12   K13   K14   K15   :=
1           1.82  1.82  1.82  1.82  1.82  1.82  1.82  1.45  1.45  1.09  1.09  1.09  1.09  1.09  1.09  
2           1.82  1.82  1.82  1.82  1.82  1.82  1.82  1.45  1.45  1.09  1.09  1.09  1.09  1.09  1.09  
3           1.82  1.82  1.82  1.82  1.82  1.82  1.82  1.45  1.45  1.09  1.09  1.09  1.09  1.09  1.09  
4           1.82  1.82  1.82  1.82  1.82  1.82  1.82  1.45  1.45  1.09  1.09  1.09  1.09  1.09  1.09  
5           1.82  1.82  1.82  1.82  1.82  1.82  1.82  1.45  1.45  1.09  1.09  1.09  1.09  1.09  1.09  
6           1.82  1.82  1.82  1.82  1.82  1.82  1.82  1.45  1.45  1.09  1.09  1.09  1.09  1.09  1.09  
7           1.82  1.82  1.82  1.82  1.82  1.82  1.82  1.45  1.45  1.09  1.09  1.09  1.09  1.09  1.09  
8           1.82  1.82  1.82  1.82  1.82  1.82  1.82  1.45  1.45  1.09  1.09  1.09  1.09  1.09  1.09  
9           1.82  1.82  1.82  1.82  1.82  1.82  1.82  1.45  1.45  1.09  1.09  1.09  1.09  1.09  1.09  
10          1.82  1.82  1.82  1.82  1.82  1.82  1.82  1.45  1.45  1.09  1.09  1.09  1.09  1.09  1.09  
11          1.82  1.82  1.82  1.82  1.82  1.82  1.82  1.45  1.45  1.09  1.09  1.09  1.09  1.09  1.09  
12          1.82  1.82  1.82  1.82  1.82  1.82  1.82  1.45  1.45  1.09  1.09  1.09  1.09  1.09  1.09  
13          1.82  1.82  1.82  1.82  1.82  1.82  1.82  1.45  1.45  1.09  1.09  1.09  1.09  1.09  1.09  
14          1.82  1.82  1.82  1.82  1.82  1.82  1.82  1.45  1.45  1.09  1.09  1.09  1.09  1.09  1.09  
15          1.82  1.82  1.82  1.82  1.82  1.82  1.82  1.45  1.45  1.09  1.09  1.09  1.09  1.09  1.09  
16          1.82  1.82  1.82  1.82  1.82  1.82  1.82  1.45  1.45  1.09  1.09  1.09  1.09  1.09  1.09  
17          1.82  1.82  1.82  1.82  1.82  1.82  1.82  1.45  1.45  1.09  1.09  1.09  1.09  1.09  1.09  
18          1.82  1.82  1.82  1.82  1.82  1.82  1.82  1.45  1.45  1.09  1.09  1.09  1.09  1.09  1.09  
19          1.82  1.82  1.82  1.82  1.82  1.82  1.82  1.45  1.45  1.09  1.09  1.09  1.09  1.09  1.09  
20          1.82  1.82  1.82  1.82  1.82  1.82  1.82  1.45  1.45  1.09  1.09  1.09  1.09  1.09  1.09  
21          1.82  1.82  1.82  1.82  1.82  1.82  1.82  1.45  1.45  1.09  1.09  1.09  1.09  1.09  1.09  
22          1.82  1.82  1.82  1.82  1.82  1.82  1.82  1.45  1.45  1.09  1.09  1.09  1.09  1.09  1.09  
23          1.82  1.82  1.82  1.82  1.82  1.82  1.82  1.45  1.45  1.09  1.09  1.09  1.09  1.09  1.09  
24          1.82  1.82  1.82  1.82  1.82  1.82  1.82  1.45  1.45  1.09  1.09  1.09  1.09  1.09  1.09  
25          1.73  1.73  1.73  1.73  1.73  1.73  1.73  1.38  1.38  1.04  1.04  1.04  1.04  1.04  1.04  
26          1.73  1.73  1.73  1.73  1.73  1.73  1.73  1.38  1.38  1.04  1.04  1.04  1.04  1.04  1.04  
27          1.73  1.73  1.73  1.73  1.73  1.73  1.73  1.38  1.38  1.04  1.04  1.04  1.04  1.04  1.04  
28          1.73  1.73  1.73  1.73  1.73  1.73  1.73  1.38  1.38  1.04  1.04  1.04  1.04  1.04  1.04  
29          1.73  1.73  1.73  1.73  1.73  1.73  1.73  1.38  1.38  1.04  1.04  1.04  1.04  1.04  1.04  
30          1.73  1.73  1.73  1.73  1.73  1.73  1.73  1.38  1.38  1.04  1.04  1.04  1.04  1.04  1.04  
31          1.73  1.73  1.73  1.73  1.73  1.73  1.73  1.38  1.38  1.04  1.04  1.04  1.04  1.04  1.04  
32          1.73  1.73  1.73  1.73  1.73  1.73  1.73  1.38  1.38  1.04  1.04  1.04  1.04  1.04  1.04  
33          1.73  1.73  1.73  1.73  1.73  1.73  1.73  1.38  1.38  1.04  1.04  1.04  1.04  1.04  1.04  
34          1.82  1.82  1.82  1.82  1.82  1.82  1.82  1.45  1.45  1.09  1.09  1.09  1.09  1.09  1.09  
35          1.82  1.82  1.82  1.82  1.82  1.82  1.82  1.45  1.45  1.09  1.09  1.09  1.09  1.09  1.09  
36          1.82  1.82  1.82  1.82  1.82  1.82  1.82  1.45  1.45  1.09  1.09  1.09  1.09  1.09  1.09  
37          1.82  1.82  1.82  1.82  1.82  1.82  1.82  1.45  1.45  1.09  1.09  1.09  1.09  1.09  1.09  
38          1.82  1.82  1.82  1.82  1.82  1.82  1.82  1.45  1.45  1.09  1.09  1.09  1.09  1.09  1.09  
39          1.82  1.82  1.82  1.82  1.82  1.82  1.82  1.45  1.45  1.09  1.09  1.09  1.09  1.09  1.09  
40          1.82  1.82  1.82  1.82  1.82  1.82  1.82  1.45  1.45  1.09  1.09  1.09  1.09  1.09  1.09  
41          1.82  1.82  1.82  1.82  1.82  1.82  1.82  1.45  1.45  1.09  1.09  1.09  1.09  1.09  1.09  
42          1.82  1.82  1.82  1.82  1.82  1.82  1.82  1.45  1.45  1.09  1.09  1.09  1.09  1.09  1.09  
43          1.82  1.82  1.82  1.82  1.82  1.82  1.82  1.45  1.45  1.09  1.09  1.09  1.09  1.09  1.09  
44          1.82  1.82  1.82  1.82  1.82  1.82  1.82  1.45  1.45  1.09  1.09  1.09  1.09  1.09  1.09  
45          1.82  1.82  1.82  1.82  1.82  1.82  1.82  1.45  1.45  1.09  1.09  1.09  1.09  1.09  1.09  

[*,*,F3 ]:  K1    K2    K3    K4    K5    K6    K7    K8    K9    K10   K11   K12   K13   K14   K15   :=
1           1.82  1.82  1.82  1.82  1.82  1.82  1.82  1.45  1.45  1.09  1.09  1.09  1.09  1.09  1.09  
2           1.82  1.82  1.82  1.82  1.82  1.82  1.82  1.45  1.45  1.09  1.09  1.09  1.09  1.09  1.09  
3           1.82  1.82  1.82  1.82  1.82  1.82  1.82  1.45  1.45  1.09  1.09  1.09  1.09  1.09  1.09  
4           1.82  1.82  1.82  1.82  1.82  1.82  1.82  1.45  1.45  1.09  1.09  1.09  1.09  1.09  1.09  
5           1.82  1.82  1.82  1.82  1.82  1.82  1.82  1.45  1.45  1.09  1.09  1.09  1.09  1.09  1.09  
6           1.82  1.82  1.82  1.82  1.82  1.82  1.82  1.45  1.45  1.09  1.09  1.09  1.09  1.09  1.09  
7           1.82  1.82  1.82  1.82  1.82  1.82  1.82  1.45  1.45  1.09  1.09  1.09  1.09  1.09  1.09  
8           1.82  1.82  1.82  1.82  1.82  1.82  1.82  1.45  1.45  1.09  1.09  1.09  1.09  1.09  1.09  
9           1.82  1.82  1.82  1.82  1.82  1.82  1.82  1.45  1.45  1.09  1.09  1.09  1.09  1.09  1.09  
10          1.82  1.82  1.82  1.82  1.82  1.82  1.82  1.45  1.45  1.09  1.09  1.09  1.09  1.09  1.09  
11          1.82  1.82  1.82  1.82  1.82  1.82  1.82  1.45  1.45  1.09  1.09  1.09  1.09  1.09  1.09  
12          1.82  1.82  1.82  1.82  1.82  1.82  1.82  1.45  1.45  1.09  1.09  1.09  1.09  1.09  1.09  
13          1.82  1.82  1.82  1.82  1.82  1.82  1.82  1.45  1.45  1.09  1.09  1.09  1.09  1.09  1.09  
14          1.82  1.82  1.82  1.82  1.82  1.82  1.82  1.45  1.45  1.09  1.09  1.09  1.09  1.09  1.09  
15          1.82  1.82  1.82  1.82  1.82  1.82  1.82  1.45  1.45  1.09  1.09  1.09  1.09  1.09  1.09  
16          1.82  1.82  1.82  1.82  1.82  1.82  1.82  1.45  1.45  1.09  1.09  1.09  1.09  1.09  1.09  
17          1.82  1.82  1.82  1.82  1.82  1.82  1.82  1.45  1.45  1.09  1.09  1.09  1.09  1.09  1.09  
18          1.82  1.82  1.82  1.82  1.82  1.82  1.82  1.45  1.45  1.09  1.09  1.09  1.09  1.09  1.09  
19          1.82  1.82  1.82  1.82  1.82  1.82  1.82  1.45  1.45  1.09  1.09  1.09  1.09  1.09  1.09  
20          1.82  1.82  1.82  1.82  1.82  1.82  1.82  1.45  1.45  1.09  1.09  1.09  1.09  1.09  1.09  
21          1.82  1.82  1.82  1.82  1.82  1.82  1.82  1.45  1.45  1.09  1.09  1.09  1.09  1.09  1.09  
22          1.82  1.82  1.82  1.82  1.82  1.82  1.82  1.45  1.45  1.09  1.09  1.09  1.09  1.09  1.09  
23          1.82  1.82  1.82  1.82  1.82  1.82  1.82  1.45  1.45  1.09  1.09  1.09  1.09  1.09  1.09  
24          1.82  1.82  1.82  1.82  1.82  1.82  1.82  1.45  1.45  1.09  1.09  1.09  1.09  1.09  1.09  
25          1.73  1.73  1.73  1.73  1.73  1.73  1.73  1.38  1.38  1.04  1.04  1.04  1.04  1.04  1.04  
26          1.73  1.73  1.73  1.73  1.73  1.73  1.73  1.38  1.38  1.04  1.04  1.04  1.04  1.04  1.04  
27          1.73  1.73  1.73  1.73  1.73  1.73  1.73  1.38  1.38  1.04  1.04  1.04  1.04  1.04  1.04  
28          1.73  1.73  1.73  1.73  1.73  1.73  1.73  1.38  1.38  1.04  1.04  1.04  1.04  1.04  1.04  
29          1.73  1.73  1.73  1.73  1.73  1.73  1.73  1.38  1.38  1.04  1.04  1.04  1.04  1.04  1.04  
30          1.73  1.73  1.73  1.73  1.73  1.73  1.73  1.38  1.38  1.04  1.04  1.04  1.04  1.04  1.04  
31          1.73  1.73  1.73  1.73  1.73  1.73  1.73  1.38  1.38  1.04  1.04  1.04  1.04  1.04  1.04  
32          1.73  1.73  1.73  1.73  1.73  1.73  1.73  1.38  1.38  1.04  1.04  1.04  1.04  1.04  1.04  
33          1.73  1.73  1.73  1.73  1.73  1.73  1.73  1.38  1.38  1.04  1.04  1.04  1.04  1.04  1.04  
34          1.82  1.82  1.82  1.82  1.82  1.82  1.82  1.45  1.45  1.09  1.09  1.09  1.09  1.09  1.09  
35          1.82  1.82  1.82  1.82  1.82  1.82  1.82  1.45  1.45  1.09  1.09  1.09  1.09  1.09  1.09  
36          1.82  1.82  1.82  1.82  1.82  1.82  1.82  1.45  1.45  1.09  1.09  1.09  1.09  1.09  1.09  
37          1.82  1.82  1.82  1.82  1.82  1.82  1.82  1.45  1.45  1.09  1.09  1.09  1.09  1.09  1.09  
38          1.82  1.82  1.82  1.82  1.82  1.82  1.82  1.45  1.45  1.09  1.09  1.09  1.09  1.09  1.09  
39          1.82  1.82  1.82  1.82  1.82  1.82  1.82  1.45  1.45  1.09  1.09  1.09  1.09  1.09  1.09  
40          1.82  1.82  1.82  1.82  1.82  1.82  1.82  1.45  1.45  1.09  1.09  1.09  1.09  1.09  1.09  
41          1.82  1.82  1.82  1.82  1.82  1.82  1.82  1.45  1.45  1.09  1.09  1.09  1.09  1.09  1.09  
42          1.82  1.82  1.82  1.82  1.82  1.82  1.82  1.45  1.45  1.09  1.09  1.09  1.09  1.09  1.09  
43          1.82  1.82  1.82  1.82  1.82  1.82  1.82  1.45  1.45  1.09  1.09  1.09  1.09  1.09  1.09  
44          1.82  1.82  1.82  1.82  1.82  1.82  1.82  1.45  1.45  1.09  1.09  1.09  1.09  1.09  1.09  
45          1.82  1.82  1.82  1.82  1.82  1.82  1.82  1.45  1.45  1.09  1.09  1.09  1.09  1.09  1.09  
; # downloads resource k can do at front f in time t if intermediate time slot

param E:= 

[*,*,F1 ]:  K1    K2    K3    K4    K5    K6    K7    K8    K9    K10   K11   K12   K13   K14   K15   :=
1           0.21  0.72  0.06  0.26  0.18  0.53  0.42  0.41  0.22  0.22  0.14  0.12  0.17  0.43  0.23  
2           0.21  0.72  0.06  0.26  0.18  0.53  0.42  0.41  0.22  0.22  0.14  0.12  0.17  0.43  0.23  
3           0.21  0.72  0.06  0.26  0.18  0.53  0.42  0.41  0.22  0.22  0.14  0.12  0.17  0.43  0.23  
4           0.21  0.72  0.06  0.26  0.18  0.53  0.42  0.41  0.22  0.22  0.14  0.12  0.17  0.43  0.23  
5           0.21  0.72  0.06  0.26  0.18  0.53  0.42  0.41  0.22  0.22  0.14  0.12  0.17  0.43  0.23  
6           0.21  0.72  0.06  0.26  0.18  0.53  0.42  0.41  0.22  0.22  0.14  0.12  0.17  0.43  0.23  
7           0.21  0.72  0.06  0.26  0.18  0.53  0.42  0.41  0.22  0.22  0.14  0.12  0.17  0.43  0.23  
8           0.21  0.72  0.06  0.26  0.18  0.53  0.42  0.41  0.22  0.22  0.14  0.12  0.17  0.43  0.23  
9           0.21  0.72  0.06  0.26  0.18  0.53  0.42  0.41  0.22  0.22  0.14  0.12  0.17  0.43  0.23  
10          0.21  0.72  0.06  0.26  0.18  0.53  0.42  0.41  0.22  0.22  0.14  0.12  0.17  0.43  0.23  
11          0.21  0.72  0.06  0.26  0.18  0.53  0.42  0.41  0.22  0.22  0.14  0.12  0.17  0.43  0.23  
12          0.21  0.72  0.06  0.26  0.18  0.53  0.42  0.41  0.22  0.22  0.14  0.12  0.17  0.43  0.23  
13          0.21  0.72  0.06  0.26  0.18  0.53  0.42  0.41  0.22  0.22  0.14  0.12  0.17  0.43  0.23  
14          0.21  0.72  0.06  0.26  0.18  0.53  0.42  0.41  0.22  0.22  0.14  0.12  0.17  0.43  0.23  
15          0.21  0.72  0.06  0.26  0.18  0.53  0.42  0.41  0.22  0.22  0.14  0.12  0.17  0.43  0.23  
16          0.21  0.72  0.06  0.26  0.18  0.53  0.42  0.41  0.22  0.22  0.14  0.12  0.17  0.43  0.23  
17          0.21  0.72  0.06  0.26  0.18  0.53  0.42  0.41  0.22  0.22  0.14  0.12  0.17  0.43  0.23  
18          0.21  0.72  0.06  0.26  0.18  0.53  0.42  0.41  0.22  0.22  0.14  0.12  0.17  0.43  0.23  
19          0.21  0.72  0.06  0.26  0.18  0.53  0.42  0.41  0.22  0.22  0.14  0.12  0.17  0.43  0.23  
20          0.21  0.72  0.06  0.26  0.18  0.53  0.42  0.41  0.22  0.22  0.14  0.12  0.17  0.43  0.23  
21          0.21  0.72  0.06  0.26  0.18  0.53  0.42  0.41  0.22  0.22  0.14  0.12  0.17  0.43  0.23  
22          0.21  0.72  0.06  0.26  0.18  0.53  0.42  0.41  0.22  0.22  0.14  0.12  0.17  0.43  0.23  
23          0.21  0.72  0.06  0.26  0.18  0.53  0.42  0.41  0.22  0.22  0.14  0.12  0.17  0.43  0.23  
24          0.21  0.72  0.06  0.26  0.18  0.53  0.42  0.41  0.22  0.22  0.14  0.12  0.17  0.43  0.23  
25          0.20  0.69  0.06  0.24  0.17  0.50  0.40  0.39  0.21  0.21  0.14  0.12  0.16  0.41  0.22  
26          0.20  0.69  0.06  0.24  0.17  0.50  0.40  0.39  0.21  0.21  0.14  0.12  0.16  0.41  0.22  
27          0.20  0.69  0.06  0.24  0.17  0.50  0.40  0.39  0.21  0.21  0.14  0.12  0.16  0.41  0.22  
28          0.20  0.69  0.06  0.24  0.17  0.50  0.40  0.39  0.21  0.21  0.14  0.12  0.16  0.41  0.22  
29          0.20  0.69  0.06  0.24  0.17  0.50  0.40  0.39  0.21  0.21  0.14  0.12  0.16  0.41  0.22  
30          0.20  0.69  0.06  0.24  0.17  0.50  0.40  0.39  0.21  0.21  0.14  0.12  0.16  0.41  0.22  
31          0.20  0.69  0.06  0.24  0.17  0.50  0.40  0.39  0.21  0.21  0.14  0.12  0.16  0.41  0.22  
32          0.20  0.69  0.06  0.24  0.17  0.50  0.40  0.39  0.21  0.21  0.14  0.12  0.16  0.41  0.22  
33          0.20  0.69  0.06  0.24  0.17  0.50  0.40  0.39  0.21  0.21  0.14  0.12  0.16  0.41  0.22  
34          0.21  0.72  0.06  0.26  0.18  0.53  0.42  0.41  0.22  0.22  0.14  0.12  0.17  0.43  0.23  
35          0.21  0.72  0.06  0.26  0.18  0.53  0.42  0.41  0.22  0.22  0.14  0.12  0.17  0.43  0.23  
36          0.21  0.72  0.06  0.26  0.18  0.53  0.42  0.41  0.22  0.22  0.14  0.12  0.17  0.43  0.23  
37          0.21  0.72  0.06  0.26  0.18  0.53  0.42  0.41  0.22  0.22  0.14  0.12  0.17  0.43  0.23  
38          0.21  0.72  0.06  0.26  0.18  0.53  0.42  0.41  0.22  0.22  0.14  0.12  0.17  0.43  0.23  
39          0.21  0.72  0.06  0.26  0.18  0.53  0.42  0.41  0.22  0.22  0.14  0.12  0.17  0.43  0.23  
40          0.21  0.72  0.06  0.26  0.18  0.53  0.42  0.41  0.22  0.22  0.14  0.12  0.17  0.43  0.23  
41          0.21  0.72  0.06  0.26  0.18  0.53  0.42  0.41  0.22  0.22  0.14  0.12  0.17  0.43  0.23  
42          0.21  0.72  0.06  0.26  0.18  0.53  0.42  0.41  0.22  0.22  0.14  0.12  0.17  0.43  0.23  
43          0.21  0.72  0.06  0.26  0.18  0.53  0.42  0.41  0.22  0.22  0.14  0.12  0.17  0.43  0.23  
44          0.21  0.72  0.06  0.26  0.18  0.53  0.42  0.41  0.22  0.22  0.14  0.12  0.17  0.43  0.23  
45          0.21  0.72  0.06  0.26  0.18  0.53  0.42  0.41  0.22  0.22  0.14  0.12  0.17  0.43  0.23  

[*,*,F2 ]:  K1    K2    K3    K4    K5    K6    K7    K8    K9    K10   K11   K12   K13   K14   K15   :=
1           0.22  0.87  0.07  0.36  0.24  0.64  0.51  0.43  0.22  0.28  0.19  0.21  0.19  0.48  0.28  
2           0.22  0.87  0.07  0.36  0.24  0.64  0.51  0.43  0.22  0.28  0.19  0.21  0.19  0.48  0.28  
3           0.22  0.87  0.07  0.36  0.24  0.64  0.51  0.43  0.22  0.28  0.19  0.21  0.19  0.48  0.28  
4           0.22  0.87  0.07  0.36  0.24  0.64  0.51  0.43  0.22  0.28  0.19  0.21  0.19  0.48  0.28  
5           0.22  0.87  0.07  0.36  0.24  0.64  0.51  0.43  0.22  0.28  0.19  0.21  0.19  0.48  0.28  
6           0.22  0.87  0.07  0.36  0.24  0.64  0.51  0.43  0.22  0.28  0.19  0.21  0.19  0.48  0.28  
7           0.22  0.87  0.07  0.36  0.24  0.64  0.51  0.43  0.22  0.28  0.19  0.21  0.19  0.48  0.28  
8           0.22  0.87  0.07  0.36  0.24  0.64  0.51  0.43  0.22  0.28  0.19  0.21  0.19  0.48  0.28  
9           0.22  0.87  0.07  0.36  0.24  0.64  0.51  0.43  0.22  0.28  0.19  0.21  0.19  0.48  0.28  
10          0.22  0.87  0.07  0.36  0.24  0.64  0.51  0.43  0.22  0.28  0.19  0.21  0.19  0.48  0.28  
11          0.22  0.87  0.07  0.36  0.24  0.64  0.51  0.43  0.22  0.28  0.19  0.21  0.19  0.48  0.28  
12          0.22  0.87  0.07  0.36  0.24  0.64  0.51  0.43  0.22  0.28  0.19  0.21  0.19  0.48  0.28  
13          0.22  0.87  0.07  0.36  0.24  0.64  0.51  0.43  0.22  0.28  0.19  0.21  0.19  0.48  0.28  
14          0.22  0.87  0.07  0.36  0.24  0.64  0.51  0.43  0.22  0.28  0.19  0.21  0.19  0.48  0.28  
15          0.22  0.87  0.07  0.36  0.24  0.64  0.51  0.43  0.22  0.28  0.19  0.21  0.19  0.48  0.28  
16          0.22  0.87  0.07  0.36  0.24  0.64  0.51  0.43  0.22  0.28  0.19  0.21  0.19  0.48  0.28  
17          0.22  0.87  0.07  0.36  0.24  0.64  0.51  0.43  0.22  0.28  0.19  0.21  0.19  0.48  0.28  
18          0.22  0.87  0.07  0.36  0.24  0.64  0.51  0.43  0.22  0.28  0.19  0.21  0.19  0.48  0.28  
19          0.22  0.87  0.07  0.36  0.24  0.64  0.51  0.43  0.22  0.28  0.19  0.21  0.19  0.48  0.28  
20          0.22  0.87  0.07  0.36  0.24  0.64  0.51  0.43  0.22  0.28  0.19  0.21  0.19  0.48  0.28  
21          0.22  0.87  0.07  0.36  0.24  0.64  0.51  0.43  0.22  0.28  0.19  0.21  0.19  0.48  0.28  
22          0.22  0.87  0.07  0.36  0.24  0.64  0.51  0.43  0.22  0.28  0.19  0.21  0.19  0.48  0.28  
23          0.22  0.87  0.07  0.36  0.24  0.64  0.51  0.43  0.22  0.28  0.19  0.21  0.19  0.48  0.28  
24          0.22  0.87  0.07  0.36  0.24  0.64  0.51  0.43  0.22  0.28  0.19  0.21  0.19  0.48  0.28  
25          0.21  0.83  0.07  0.35  0.22  0.61  0.48  0.41  0.21  0.27  0.18  0.20  0.18  0.46  0.27  
26          0.21  0.83  0.07  0.35  0.22  0.61  0.48  0.41  0.21  0.27  0.18  0.20  0.18  0.46  0.27  
27          0.21  0.83  0.07  0.35  0.22  0.61  0.48  0.41  0.21  0.27  0.18  0.20  0.18  0.46  0.27  
28          0.21  0.83  0.07  0.35  0.22  0.61  0.48  0.41  0.21  0.27  0.18  0.20  0.18  0.46  0.27  
29          0.21  0.83  0.07  0.35  0.22  0.61  0.48  0.41  0.21  0.27  0.18  0.20  0.18  0.46  0.27  
30          0.21  0.83  0.07  0.35  0.22  0.61  0.48  0.41  0.21  0.27  0.18  0.20  0.18  0.46  0.27  
31          0.21  0.83  0.07  0.35  0.22  0.61  0.48  0.41  0.21  0.27  0.18  0.20  0.18  0.46  0.27  
32          0.21  0.83  0.07  0.35  0.22  0.61  0.48  0.41  0.21  0.27  0.18  0.20  0.18  0.46  0.27  
33          0.21  0.83  0.07  0.35  0.22  0.61  0.48  0.41  0.21  0.27  0.18  0.20  0.18  0.46  0.27  
34          0.22  0.87  0.07  0.36  0.24  0.64  0.51  0.43  0.22  0.28  0.19  0.21  0.19  0.48  0.28  
35          0.22  0.87  0.07  0.36  0.24  0.64  0.51  0.43  0.22  0.28  0.19  0.21  0.19  0.48  0.28  
36          0.22  0.87  0.07  0.36  0.24  0.64  0.51  0.43  0.22  0.28  0.19  0.21  0.19  0.48  0.28  
37          0.22  0.87  0.07  0.36  0.24  0.64  0.51  0.43  0.22  0.28  0.19  0.21  0.19  0.48  0.28  
38          0.22  0.87  0.07  0.36  0.24  0.64  0.51  0.43  0.22  0.28  0.19  0.21  0.19  0.48  0.28  
39          0.22  0.87  0.07  0.36  0.24  0.64  0.51  0.43  0.22  0.28  0.19  0.21  0.19  0.48  0.28  
40          0.22  0.87  0.07  0.36  0.24  0.64  0.51  0.43  0.22  0.28  0.19  0.21  0.19  0.48  0.28  
41          0.22  0.87  0.07  0.36  0.24  0.64  0.51  0.43  0.22  0.28  0.19  0.21  0.19  0.48  0.28  
42          0.22  0.87  0.07  0.36  0.24  0.64  0.51  0.43  0.22  0.28  0.19  0.21  0.19  0.48  0.28  
43          0.22  0.87  0.07  0.36  0.24  0.64  0.51  0.43  0.22  0.28  0.19  0.21  0.19  0.48  0.28  
44          0.22  0.87  0.07  0.36  0.24  0.64  0.51  0.43  0.22  0.28  0.19  0.21  0.19  0.48  0.28  
45          0.22  0.87  0.07  0.36  0.24  0.64  0.51  0.43  0.22  0.28  0.19  0.21  0.19  0.48  0.28  

[*,*,F3 ]:  K1    K2    K3    K4    K5    K6    K7    K8    K9    K10   K11   K12   K13   K14   K15   :=
1           0.09  0.89  0.11  0.38  0.20  0.49  0.38  0.51  0.29  0.25  0.14  0.19  0.26  0.46  0.26  
2           0.09  0.89  0.11  0.38  0.20  0.49  0.38  0.51  0.29  0.25  0.14  0.19  0.26  0.46  0.26  
3           0.09  0.89  0.11  0.38  0.20  0.49  0.38  0.51  0.29  0.25  0.14  0.19  0.26  0.46  0.26  
4           0.09  0.89  0.11  0.38  0.20  0.49  0.38  0.51  0.29  0.25  0.14  0.19  0.26  0.46  0.26  
5           0.09  0.89  0.11  0.38  0.20  0.49  0.38  0.51  0.29  0.25  0.14  0.19  0.26  0.46  0.26  
6           0.09  0.89  0.11  0.38  0.20  0.49  0.38  0.51  0.29  0.25  0.14  0.19  0.26  0.46  0.26  
7           0.09  0.89  0.11  0.38  0.20  0.49  0.38  0.51  0.29  0.25  0.14  0.19  0.26  0.46  0.26  
8           0.09  0.89  0.11  0.38  0.20  0.49  0.38  0.51  0.29  0.25  0.14  0.19  0.26  0.46  0.26  
9           0.09  0.89  0.11  0.38  0.20  0.49  0.38  0.51  0.29  0.25  0.14  0.19  0.26  0.46  0.26  
10          0.09  0.89  0.11  0.38  0.20  0.49  0.38  0.51  0.29  0.25  0.14  0.19  0.26  0.46  0.26  
11          0.09  0.89  0.11  0.38  0.20  0.49  0.38  0.51  0.29  0.25  0.14  0.19  0.26  0.46  0.26  
12          0.09  0.89  0.11  0.38  0.20  0.49  0.38  0.51  0.29  0.25  0.14  0.19  0.26  0.46  0.26  
13          0.09  0.89  0.11  0.38  0.20  0.49  0.38  0.51  0.29  0.25  0.14  0.19  0.26  0.46  0.26  
14          0.09  0.89  0.11  0.38  0.20  0.49  0.38  0.51  0.29  0.25  0.14  0.19  0.26  0.46  0.26  
15          0.09  0.89  0.11  0.38  0.20  0.49  0.38  0.51  0.29  0.25  0.14  0.19  0.26  0.46  0.26  
16          0.09  0.89  0.11  0.38  0.20  0.49  0.38  0.51  0.29  0.25  0.14  0.19  0.26  0.46  0.26  
17          0.09  0.89  0.11  0.38  0.20  0.49  0.38  0.51  0.29  0.25  0.14  0.19  0.26  0.46  0.26  
18          0.09  0.89  0.11  0.38  0.20  0.49  0.38  0.51  0.29  0.25  0.14  0.19  0.26  0.46  0.26  
19          0.09  0.89  0.11  0.38  0.20  0.49  0.38  0.51  0.29  0.25  0.14  0.19  0.26  0.46  0.26  
20          0.09  0.89  0.11  0.38  0.20  0.49  0.38  0.51  0.29  0.25  0.14  0.19  0.26  0.46  0.26  
21          0.09  0.89  0.11  0.38  0.20  0.49  0.38  0.51  0.29  0.25  0.14  0.19  0.26  0.46  0.26  
22          0.09  0.89  0.11  0.38  0.20  0.49  0.38  0.51  0.29  0.25  0.14  0.19  0.26  0.46  0.26  
23          0.09  0.89  0.11  0.38  0.20  0.49  0.38  0.51  0.29  0.25  0.14  0.19  0.26  0.46  0.26  
24          0.09  0.89  0.11  0.38  0.20  0.49  0.38  0.51  0.29  0.25  0.14  0.19  0.26  0.46  0.26  
25          0.09  0.85  0.10  0.36  0.19  0.47  0.36  0.48  0.28  0.24  0.13  0.18  0.25  0.43  0.25  
26          0.09  0.85  0.10  0.36  0.19  0.47  0.36  0.48  0.28  0.24  0.13  0.18  0.25  0.43  0.25  
27          0.09  0.85  0.10  0.36  0.19  0.47  0.36  0.48  0.28  0.24  0.13  0.18  0.25  0.43  0.25  
28          0.09  0.85  0.10  0.36  0.19  0.47  0.36  0.48  0.28  0.24  0.13  0.18  0.25  0.43  0.25  
29          0.09  0.85  0.10  0.36  0.19  0.47  0.36  0.48  0.28  0.24  0.13  0.18  0.25  0.43  0.25  
30          0.09  0.85  0.10  0.36  0.19  0.47  0.36  0.48  0.28  0.24  0.13  0.18  0.25  0.43  0.25  
31          0.09  0.85  0.10  0.36  0.19  0.47  0.36  0.48  0.28  0.24  0.13  0.18  0.25  0.43  0.25  
32          0.09  0.85  0.10  0.36  0.19  0.47  0.36  0.48  0.28  0.24  0.13  0.18  0.25  0.43  0.25  
33          0.09  0.85  0.10  0.36  0.19  0.47  0.36  0.48  0.28  0.24  0.13  0.18  0.25  0.43  0.25  
34          0.09  0.89  0.11  0.38  0.20  0.49  0.38  0.51  0.29  0.25  0.14  0.19  0.26  0.46  0.26  
35          0.09  0.89  0.11  0.38  0.20  0.49  0.38  0.51  0.29  0.25  0.14  0.19  0.26  0.46  0.26  
36          0.09  0.89  0.11  0.38  0.20  0.49  0.38  0.51  0.29  0.25  0.14  0.19  0.26  0.46  0.26  
37          0.09  0.89  0.11  0.38  0.20  0.49  0.38  0.51  0.29  0.25  0.14  0.19  0.26  0.46  0.26  
38          0.09  0.89  0.11  0.38  0.20  0.49  0.38  0.51  0.29  0.25  0.14  0.19  0.26  0.46  0.26  
39          0.09  0.89  0.11  0.38  0.20  0.49  0.38  0.51  0.29  0.25  0.14  0.19  0.26  0.46  0.26  
40          0.09  0.89  0.11  0.38  0.20  0.49  0.38  0.51  0.29  0.25  0.14  0.19  0.26  0.46  0.26  
41          0.09  0.89  0.11  0.38  0.20  0.49  0.38  0.51  0.29  0.25  0.14  0.19  0.26  0.46  0.26  
42          0.09  0.89  0.11  0.38  0.20  0.49  0.38  0.51  0.29  0.25  0.14  0.19  0.26  0.46  0.26  
43          0.09  0.89  0.11  0.38  0.20  0.49  0.38  0.51  0.29  0.25  0.14  0.19  0.26  0.46  0.26  
44          0.09  0.89  0.11  0.38  0.20  0.49  0.38  0.51  0.29  0.25  0.14  0.19  0.26  0.46  0.26  
45          0.09  0.89  0.11  0.38  0.20  0.49  0.38  0.51  0.29  0.25  0.14  0.19  0.26  0.46  0.26  
; # downloads resource k can do at front f in time t if starting or ending flight

param W: 
	F1        F2        F3        :=
1	622.38    622.38    622.38    
2	2489.53   2489.53   2489.53   
3	2489.53   2489.53   2489.53   
4	2489.53   2489.53   2489.53   
5	2489.53   2489.53   2489.53   
6	2489.53   2489.53   2489.53   
7	2489.53   2489.53   2489.53   
8	2489.53   2489.53   2489.53   
9	2489.53   2489.53   2489.53   
10	2489.53   2489.53   2489.53   
11	2489.53   2489.53   2489.53   
12	2489.53   2489.53   2489.53   
13	2489.53   2489.53   2489.53   
14	2489.53   2489.53   2489.53   
15	2489.53   2489.53   2489.53   
16	2489.53   2489.53   2489.53   
17	2489.53   2489.53   2489.53   
18	2489.53   2489.53   2489.53   
19	1106.46   1106.46   1106.46   
20	1106.46   1106.46   1106.46   
21	1106.46   1106.46   1106.46   
22	1106.46   1106.46   1106.46   
23	1106.46   1106.46   1106.46   
24	1106.46   1106.46   1106.46   
25	1106.46   1106.46   1106.46   
26	1106.46   1106.46   1106.46   
27	1106.46   1106.46   1106.46   
28	1106.46   1106.46   1106.46   
29	1106.46   1106.46   1106.46   
30	1106.46   1106.46   1106.46   
31	1106.46   1106.46   1106.46   
32	1106.46   1106.46   1106.46   
33	1106.46   1106.46   1106.46   
34	1106.46   1106.46   1106.46   
35	1106.46   1106.46   1106.46   
36	1106.46   1106.46   1106.46   
37	1106.46   1106.46   1106.46   
38	1106.46   1106.46   1106.46   
39	1106.46   1106.46   1106.46   
40	1106.46   1106.46   1106.46   
41	1106.46   1106.46   1106.46   
42	1106.46   1106.46   1106.46   
43	1106.46   1106.46   1106.46   
44	1106.46   1106.46   1106.46   
45	276.61    276.61    276.61    
; # water needed at front f in time slot t

param M := 100000000; 

param a1:= 10000000;

param a2:= 100;

param a3:= 0.0001;
